40 36 40 40 40 40 40 37 39 37 36 38 39 39 37 39 39 38 39 37 
48 50 48 46 43 44 49 45 49 44 46 47 47 43 49 47 47 50 46 47 
48 48 50 47 43 50 45 44 43 42 48 48 43 42 42 46 43 50 47 42 
43 44 45 44 45 46 44 45 45 43 46 43 43 43 47 44 47 44 44 47 
42 40 42 42 41 41 42 42 41 41 41 40 40 40 40 42 40 42 40 42 
39 45 42 40 45 45 43 40 42 42 44 41 43 39 39 45 43 39 40 43 
46 42 47 47 45 47 48 48 50 50 45 50 43 47 46 47 49 48 46 45 
43 38 42 46 47 38 48 44 43 45 40 47 46 48 43 38 48 45 43 43 
45 46 45 46 50 46 47 46 46 51 46 47 45 47 46 47 48 46 46 49 
45 43 43 40 42 41 44 40 43 40 44 43 41 41 45 43 40 42 44 45 
41 39 39 39 39 40 41 40 40 41 41 40 41 40 40 39 40 41 40 39 
40 38 40 39 36 37 36 36 38 38 39 36 39 36 42 40 36 40 38 36 
44 46 46 46 46 44 42 46 43 42 46 46 44 42 44 45 43 43 42 43 
38 39 35 37 44 45 44 39 43 39 42 42 39 43 38 39 45 41 42 36 
47 45 47 47 47 46 44 48 44 47 45 48 45 48 47 46 47 45 44 46 
36 35 35 40 35 34 38 42 40 36 38 41 35 40 36 38 37 34 42 40 
48 48 47 47 47 47 46 44 46 45 45 47 47 44 47 44 47 45 45 45 
42 40 44 41 41 40 40 40 44 44 40 43 41 43 40 40 44 43 41 42 
47 48 46 48 46 46 47 47 48 47 48 48 48 47 47 46 48 48 48 47 
41 38 40 38 38 45 39 40 44 45 45 45 41 45 45 42 37 40 41 37 
49 46 50 47 45 47 46 46 47 49 50 47 49 44 47 47 47 50 50 44 
45 43 43 45 50 48 44 43 48 48 44 46 50 45 51 49 47 51 43 48 
46 47 45 46 46 44 43 45 46 44 43 46 47 47 47 43 45 47 43 44 
49 47 47 49 48 47 47 48 48 49 49 48 47 48 48 47 48 47 47 48 
39 35 42 35 38 43 38 41 40 41 44 38 45 39 45 45 41 36 43 43 
39 39 39 40 39 38 38 38 40 38 39 38 39 40 40 40 38 40 39 40 
45 42 45 45 43 45 42 47 46 41 46 45 51 41 45 51 49 43 50 41 
37 40 40 37 37 39 41 37 38 39 41 38 41 41 41 41 41 40 39 40 
47 44 51 50 51 47 45 50 45 43 44 50 46 49 46 45 47 47 49 48 
39 41 42 40 39 42 40 40 42 39 38 39 39 40 40 41 39 41 38 42 
47 44 44 48 43 48 48 48 48 41 44 40 46 42 47 46 43 40 48 50 
42 41 47 48 45 49 44 46 41 50 46 42 45 40 40 50 45 44 50 42 
40 41 42 41 42 41 41 40 42 41 41 41 40 40 41 42 41 41 41 40 
45 36 45 46 40 40 38 42 38 46 38 36 36 45 42 43 45 41 46 43 
46 48 45 48 46 47 47 47 48 48 46 48 48 46 46 47 45 49 48 46 
41 44 44 46 47 44 46 40 40 44 40 43 45 47 46 43 46 40 42 44 
46 46 40 40 46 46 46 40 41 43 42 40 45 40 45 41 43 43 46 41 
41 41 43 42 41 42 43 42 41 42 43 41 42 41 42 43 41 41 42 42 
42 44 44 44 42 44 42 42 42 43 42 43 42 43 43 44 44 43 44 43 
36 41 40 42 38 38 38 40 42 39 41 42 42 40 42 36 42 42 39 41 
41 42 42 41 42 41 40 41 42 42 42 42 42 41 41 42 41 42 40 42 
39 40 39 37 40 39 40 39 37 36 40 39 36 38 39 36 39 37 37 37 
45 41 43 47 42 42 40 43 40 41 45 48 42 43 41 48 42 43 47 44 
44 48 48 48 47 46 46 44 47 46 45 48 46 47 46 44 45 44 47 44 
41 40 48 47 44 41 45 46 50 45 41 48 45 46 44 47 49 44 41 47 
40 43 40 41 37 37 37 39 37 39 39 40 41 41 41 40 41 39 43 43 
35 44 35 37 37 34 38 38 36 37 37 44 34 41 44 36 42 41 40 44 
39 40 39 39 40 40 40 40 39 41 39 40 41 40 41 39 40 40 39 40 
49 48 49 47 48 49 48 49 47 49 48 48 47 48 47 47 49 48 49 47 
45 47 45 43 45 45 45 45 45 43 45 43 47 47 43 46 45 46 45 45 
43 46 50 49 44 47 48 45 45 43 45 51 50 47 46 46 47 47 50 46 
37 41 43 43 44 39 42 41 44 40 39 40 44 41 38 36 41 40 44 43 
37 39 39 35 38 41 37 42 43 35 37 40 40 39 38 42 42 41 38 40 
42 42 45 44 41 46 44 40 45 37 37 44 37 46 36 46 43 45 37 43 
42 42 43 41 41 42 41 41 42 41 43 42 43 43 41 43 41 43 42 41 
42 42 42 44 44 43 43 44 42 42 44 43 44 44 42 42 42 43 43 44 
49 51 48 47 43 50 44 46 47 52 42 49 45 46 43 50 46 46 45 42 
42 44 43 44 43 44 42 42 43 42 44 42 43 43 42 43 44 43 42 43 
49 50 49 49 48 48 50 45 47 47 46 51 45 45 51 46 48 47 49 47 
45 46 50 46 44 49 47 49 44 45 45 43 47 45 42 44 48 46 50 43 
45 50 46 47 48 51 47 48 51 46 50 49 48 49 47 48 48 51 46 46 
36 36 39 36 41 41 39 36 39 36 37 38 41 35 36 40 36 39 36 36 
41 39 41 37 39 41 40 37 39 38 39 39 41 37 41 37 38 37 41 40 
35 42 35 39 41 35 36 37 35 37 38 41 41 41 37 37 43 40 40 40 
45 46 49 50 46 50 49 44 48 46 45 46 48 44 48 49 47 48 44 47 
48 46 49 47 47 49 48 47 44 47 49 43 49 45 43 48 45 48 49 46 
40 37 37 36 41 36 39 40 41 42 41 42 38 39 36 41 42 42 37 37 
41 40 41 41 41 39 41 40 41 39 39 39 40 40 40 41 39 41 40 40 
41 40 41 39 41 40 40 39 39 41 39 39 41 41 41 40 40 39 40 40 
39 34 42 40 36 37 37 36 38 36 34 38 40 35 38 37 37 37 37 35 
39 39 40 39 38 39 39 40 39 40 38 38 39 38 38 38 40 38 40 40 
42 41 42 42 42 42 42 42 41 41 42 42 40 41 42 41 42 42 40 40 
45 50 49 44 48 45 48 46 50 50 45 48 49 48 50 47 49 45 50 47 
45 45 45 46 44 46 44 46 46 46 45 46 46 46 44 46 44 46 44 46 
50 46 44 50 48 46 47 46 49 48 45 50 50 46 45 48 47 44 49 49 
47 49 47 45 48 49 47 47 45 44 46 45 49 48 48 47 48 49 49 45 
38 38 39 38 39 39 39 40 39 40 38 40 38 38 40 40 38 38 40 40 
47 49 49 48 46 47 49 48 45 49 48 45 48 45 45 46 46 47 48 47 
40 38 37 41 39 37 38 37 41 41 37 39 38 38 39 39 37 39 39 38 
41 41 39 39 44 39 40 41 45 39 43 45 43 43 45 43 41 43 42 41 
44 45 44 50 47 50 48 48 52 51 44 49 51 49 49 51 48 52 48 51 
47 46 41 44 47 41 47 48 46 43 49 45 44 49 49 49 47 47 47 47 
48 45 45 42 48 47 48 47 46 42 42 46 43 43 46 42 46 49 44 48 
47 47 41 44 45 42 47 48 43 45 41 41 46 47 43 47 46 41 45 48 
43 42 45 44 43 46 44 43 44 42 44 43 45 44 42 45 43 46 46 42 
40 44 42 40 42 42 43 40 42 44 42 41 44 40 42 44 41 40 40 40 
43 43 38 43 42 39 40 39 38 43 40 44 39 39 38 41 38 44 43 42 
48 46 46 48 47 48 47 46 47 47 47 46 48 47 48 47 46 46 46 48 
46 43 43 48 50 51 51 49 45 51 46 41 47 49 47 49 49 42 47 48 
35 34 41 36 42 42 35 42 37 40 35 37 41 37 42 41 34 38 38 42 
43 43 44 43 44 43 44 45 45 45 43 43 43 45 45 43 45 44 45 45 
45 43 42 41 40 44 43 40 45 42 39 41 43 44 42 45 43 45 39 42 
44 46 42 45 47 47 48 43 46 48 42 43 43 45 42 42 49 44 42 49 
39 39 42 42 37 37 38 37 43 37 43 37 40 37 41 42 38 39 42 39 
39 40 37 40 39 40 40 40 41 37 38 40 39 41 39 37 39 39 41 39 
46 49 47 51 44 46 51 45 44 47 45 47 43 48 43 50 45 44 47 46 
41 40 40 42 41 40 42 42 40 42 40 41 42 40 40 42 41 40 42 41 
40 39 45 43 42 41 45 43 40 42 40 45 43 42 40 45 42 45 41 42 
43 44 43 43 44 43 42 43 43 42 42 44 44 42 44 44 42 43 43 43 
41 37 40 35 35 40 40 41 35 38 37 39 38 40 37 37 38 35 39 35 
38 38 42 39 37 42 42 39 43 43 37 43 37 38 39 40 39 43 37 40 
39 43 41 42 40 37 37 37 39 39 43 45 37 39 45 45 40 40 45 40 
46 41 41 46 46 45 42 46 41 42 44 42 46 47 41 43 46 47 47 45 
42 41 41 39 39 41 43 43 40 45 40 42 43 43 41 42 43 45 40 39 
47 45 45 40 47 48 47 43 41 44 45 42 45 48 45 41 40 48 45 44 
36 37 36 45 42 37 40 45 36 46 41 40 44 41 44 40 40 36 37 46 
40 40 36 41 37 38 36 40 40 38 37 39 35 39 35 40 40 38 38 41 
38 39 42 41 42 40 42 39 41 39 39 39 42 39 38 42 42 40 41 42 
42 47 44 45 45 47 45 42 42 44 42 48 42 43 48 46 48 48 45 48 
43 40 40 39 39 43 42 41 41 39 41 40 39 43 40 39 39 42 41 39 
39 34 43 37 36 38 38 41 41 38 39 34 36 39 33 41 35 42 35 38 
38 35 37 36 43 34 38 38 36 36 35 35 44 37 42 37 36 37 42 43 
39 38 37 39 40 39 41 37 38 39 38 38 38 39 39 40 40 38 39 41 
41 42 38 40 38 37 39 37 38 42 38 42 40 40 42 42 38 38 39 38 
43 40 43 38 39 40 43 43 42 39 38 43 40 41 43 44 42 43 40 40 
46 47 42 47 45 42 43 43 43 44 44 45 43 47 44 41 45 41 44 45 
42 43 44 42 40 41 42 44 36 39 40 40 44 38 44 42 36 39 41 42 
38 43 38 44 40 44 40 42 41 44 42 40 43 38 43 43 44 42 41 41 
43 43 42 42 43 43 43 44 42 43 43 44 44 43 43 43 43 42 43 44 
43 43 44 43 42 43 42 44 43 43 44 43 43 43 44 44 43 44 43 43 
40 39 39 38 38 40 40 40 40 39 40 38 39 38 38 40 38 40 38 38 
42 49 41 46 43 45 48 47 41 43 48 43 46 45 45 49 46 42 43 41 
44 43 46 46 44 43 45 42 47 46 44 47 41 46 44 43 42 42 46 41 
38 42 41 40 40 39 38 41 38 39 39 40 40 40 39 40 40 41 40 42 
48 47 47 46 46 46 47 46 46 47 46 48 47 48 46 46 47 47 48 48 
43 47 45 45 46 47 45 45 44 44 45 43 47 45 44 45 45 44 44 47 
47 47 42 45 48 44 48 44 40 42 41 41 43 41 46 44 47 49 50 50 
38 37 37 37 37 42 42 36 36 37 36 41 40 37 37 36 37 39 40 37 
47 44 45 46 46 48 46 46 45 47 44 44 47 46 44 45 48 48 47 44 
47 48 49 48 47 49 49 48 47 48 49 47 47 48 47 49 49 49 48 49 
35 39 37 41 38 39 36 35 35 39 35 41 39 35 38 40 36 35 38 38 
42 39 41 39 39 39 41 45 42 46 46 46 46 40 47 44 40 44 40 43 
38 41 40 43 44 42 44 43 42 42 44 43 41 38 43 40 41 41 43 41 
44 42 47 38 45 47 41 45 42 44 42 47 47 47 44 47 47 39 44 47 
46 42 42 43 41 41 46 48 40 43 46 39 46 38 45 48 45 45 47 45 
40 41 41 45 41 43 45 40 43 45 41 44 40 43 40 39 45 39 45 44 
43 44 43 45 44 44 43 44 45 45 45 44 43 43 44 45 43 45 44 45 
42 40 44 45 44 45 48 44 45 46 40 41 44 48 43 46 43 41 44 40 
43 40 40 40 42 44 42 41 43 43 44 42 43 42 41 43 42 40 44 42 
40 38 38 40 39 37 40 41 38 41 39 38 38 40 40 40 41 37 39 40 
42 44 42 44 43 44 43 43 42 44 42 42 42 42 42 42 43 42 43 42 
47 46 45 44 46 45 44 43 44 45 43 44 44 44 43 45 45 46 44 45 
45 44 46 46 45 48 46 45 47 44 44 47 47 48 44 46 48 44 46 44 
36 40 39 38 36 39 37 37 39 38 38 37 38 39 38 39 38 39 37 37 
43 45 44 43 41 39 41 41 47 39 49 45 48 46 48 44 45 41 40 48 
37 39 38 38 38 40 35 38 42 39 36 40 40 43 36 37 38 40 38 43 
46 46 47 47 46 46 45 45 45 47 47 45 47 46 45 45 45 45 45 45 
40 41 40 39 39 36 42 37 37 39 36 36 39 38 37 41 36 40 41 41 
39 40 36 39 38 37 46 41 46 40 38 46 42 43 43 44 43 37 39 46 
44 38 39 44 41 39 45 38 41 40 40 41 40 41 38 38 38 46 42 41 
42 39 45 41 45 40 41 40 38 41 40 43 42 38 42 42 38 39 41 40 
43 48 49 43 48 47 50 47 45 43 45 47 44 49 51 51 51 42 51 46 
44 46 46 47 45 43 46 48 44 46 47 49 49 48 46 49 43 44 48 46 
50 48 49 48 45 52 45 48 48 44 44 45 45 50 47 52 45 47 49 46 
40 40 44 44 42 41 44 43 41 41 43 42 44 41 40 42 40 41 40 44 
44 46 42 48 44 42 47 47 46 43 47 45 49 42 43 44 45 41 46 44 
37 37 41 36 35 37 40 40 35 37 37 36 36 38 37 38 40 35 37 38 
43 41 43 42 43 43 42 41 42 42 43 42 42 41 41 41 43 42 43 41 
47 47 41 44 43 45 45 44 44 47 41 46 45 43 45 42 42 42 46 44 
38 37 40 35 36 40 41 36 36 38 38 38 39 35 39 42 35 41 40 35 
38 39 44 42 42 42 37 42 40 38 40 45 39 38 40 38 42 37 43 45 
43 48 45 46 44 50 51 51 45 45 43 50 43 44 47 45 44 44 51 51 
40 39 42 39 42 39 41 41 40 42 38 42 42 42 39 40 41 39 39 42 
47 47 47 43 45 45 47 44 44 46 43 43 44 43 47 43 46 44 43 45 
44 43 48 46 47 47 47 43 47 46 48 48 41 40 42 40 47 48 41 46 
46 43 43 43 45 44 48 42 39 42 42 38 41 39 40 39 48 38 48 41 
51 49 43 46 43 52 48 53 51 43 44 46 50 52 49 53 48 49 51 45 
37 39 39 37 37 37 37 38 39 37 38 38 38 38 37 39 38 39 39 39 
48 47 45 41 48 45 42 46 47 40 45 46 41 41 46 47 44 41 46 47 
49 48 51 47 51 50 48 49 48 47 47 45 48 50 51 50 45 49 49 49 
42 44 43 42 48 48 43 42 42 50 50 42 50 44 49 45 43 47 43 45 
47 47 46 46 45 46 46 47 45 46 46 46 47 45 45 45 46 46 46 45 
48 47 48 48 46 47 50 47 49 49 49 49 46 49 47 48 50 48 50 50 
37 41 43 41 40 39 38 40 42 42 38 41 39 38 40 41 38 41 42 43 
43 40 40 38 37 38 39 40 38 39 37 43 42 41 40 43 38 36 42 42 
42 43 43 44 42 44 42 42 42 42 44 42 44 44 42 43 43 43 43 42 
38 38 35 36 35 35 43 41 42 44 42 44 43 44 43 43 38 44 43 42 
48 47 44 46 47 46 44 45 46 46 44 46 44 45 46 48 47 48 48 44 
48 48 47 46 47 45 50 51 47 45 44 49 43 43 49 48 49 47 47 46 
44 42 43 43 44 42 44 43 42 43 43 42 42 44 44 44 43 42 42 42 
44 43 48 48 44 43 46 48 42 42 41 40 40 39 41 44 48 47 48 39 
47 47 45 46 47 45 45 45 47 45 47 45 45 46 47 45 46 47 45 47 
43 43 43 43 42 41 43 41 42 42 41 41 41 42 43 42 43 41 43 41 
46 46 43 48 46 42 43 48 47 46 44 47 46 44 44 43 48 44 47 44 
36 35 41 35 38 39 36 44 40 37 45 44 44 40 36 37 43 36 43 43 
46 48 48 47 47 46 46 47 48 46 47 47 46 47 48 46 46 46 47 47 
47 48 46 48 48 46 48 46 47 48 48 46 46 48 47 48 48 47 48 48 
46 44 44 43 44 42 43 45 46 43 46 46 45 46 46 43 46 43 42 44 
41 46 43 41 47 46 49 47 46 46 48 44 51 48 50 44 50 45 50 45 
47 47 47 47 47 46 47 46 45 47 45 47 45 47 46 46 45 47 45 45 
49 48 45 42 42 51 49 42 48 44 49 51 44 45 49 50 46 46 42 43 
50 47 48 45 49 43 45 48 45 44 45 51 51 44 50 45 50 48 43 51 
43 43 47 43 44 47 49 48 46 48 45 48 46 45 44 48 48 48 48 47 
44 47 44 47 45 45 44 43 45 43 45 45 45 47 46 46 44 45 46 43 
41 43 45 45 40 43 43 40 41 41 42 42 41 43 45 44 42 40 43 43 
48 48 48 47 47 47 48 48 46 48 48 46 46 46 48 47 46 48 47 46 
48 47 40 44 40 41 43 44 48 49 46 46 42 46 49 50 46 42 48 46 
44 39 36 34 36 38 35 44 42 40 35 44 38 34 41 37 40 42 39 34 
42 41 37 41 39 43 40 40 41 36 38 36 41 37 42 44 43 39 37 37 
42 48 39 44 45 46 44 46 43 45 43 43 42 38 48 42 44 44 43 39 